temp.smt
(set-option :produce-models true )
(declare-fun x ()
Int )
(declare-fun y ()
Int )
(declare-fun f (Int Int )
Int )
(assert (= (f x y )
10 )
)
(check-sat )
(get-model )
(exit )
